# 3.4.22.1_group0_PF00112_30-85~3.4.22.27_group0_PF00112_30-85.sdpA
# All alignment positions within 5\AA of a ligand/cat site passing the sdpA filter.  Column indices start with 0.
19
20
21
32
107
177
205
207
208
232
237
